c uprop, v00.0, 
c reading from data/prog347.c.cnf
c done reading: 0.002838
p cnf 125 494
-75 -92 0
75 92 0
75 -97 0
-75 97 0
-81 92 0
-81 -83 0
81 83 -92 0
83 -87 -92 0
-83 -87 92 0
83 87 92 0
-83 87 -92 0
81 -91 0
-91 -94 0
-81 91 94 0
-81 94 -95 0
81 -94 -95 0
81 94 95 0
-81 -94 95 0
91 -96 0
-96 -99 0
-91 96 99 0
-91 99 -101 0
91 -99 -101 0
91 99 101 0
-91 -99 101 0
-77 96 0
-77 -79 0
77 79 -96 0
-73 79 -96 0
-73 -79 96 0
73 79 96 0
73 -79 -96 0
-72 77 0
-72 -85 0
72 -77 85 0
-71 -77 85 0
-71 77 -85 0
71 77 85 0
71 -77 -85 0
-70 72 0
-70 -89 0
70 -72 89 0
-69 -72 89 0
-69 72 -89 0
69 72 89 0
69 -72 -89 0
-68 94 0
68 -94 0
67 -75 -99 0
-67 75 99 0
-67 99 0
-67 75 0
-66 -67 99 0
-66 -67 75 0
-66 -67 0
66 67 -99 0
66 67 -75 0
-66 75 99 0
65 -79 -83 0
65 -67 -79 0
65 -67 -83 0
-65 79 83 0
-65 67 79 0
-65 67 83 0
-64 -65 79 0
-64 -65 83 0
-64 -65 67 0
64 65 -79 0
64 65 -83 0
64 65 -67 0
64 -67 -79 -83 0
-64 67 79 83 0
63 -85 -94 0
63 -65 -85 0
63 -65 -94 0
-63 85 94 0
-63 65 85 0
-63 65 94 0
-62 -63 85 0
-62 -63 94 0
-62 -63 65 0
62 63 -85 0
62 63 -94 0
62 63 -65 0
62 -65 -85 -94 0
-62 65 85 94 0
61 -89 -99 0
61 -63 -89 0
61 -63 -99 0
-61 89 99 0
-61 63 89 0
-61 63 99 0
-61 89 -102 0
-61 99 -102 0
-61 63 -102 0
61 -89 102 0
61 -99 102 0
61 -63 102 0
-63 -89 -99 102 0
63 89 99 -102 0
79 -103 0
61 -103 0
-61 -79 103 0
-61 -79 -104 0
61 79 -104 0
61 -79 104 0
-61 79 104 0
85 -105 0
103 -105 0
-85 -103 105 0
-85 -103 -106 0
85 103 -106 0
-85 103 106 0
85 -103 106 0
-76 89 0
-76 105 0
76 -89 -105 0
-84 -89 -105 0
-84 89 105 0
84 -89 105 0
84 89 -105 0
64 -100 0
-64 100 0
-62 -75 80 0
62 75 -80 0
62 -80 0
75 -80 0
62 -80 -86 0
75 -80 -86 0
-80 -86 0
-62 80 86 0
-75 80 86 0
62 75 -86 0
-83 90 -102 0
-80 90 -102 0
-80 -83 90 0
83 -90 102 0
80 -90 102 0
80 83 -90 0
-90 102 -107 0
83 -90 -107 0
80 -90 -107 0
90 -102 107 0
-83 90 107 0
-80 90 107 0
-80 -83 -102 107 0
80 83 102 -107 0
-94 -104 108 0
-90 -104 108 0
-90 -94 108 0
94 104 -108 0
90 104 -108 0
90 94 -108 0
104 -108 -109 0
94 -108 -109 0
90 -108 -109 0
-104 108 109 0
-94 108 109 0
-90 108 109 0
-90 -94 -104 109 0
90 94 104 -109 0
-99 -106 110 0
-106 -108 110 0
-99 -108 110 0
99 106 -110 0
106 108 -110 0
99 108 -110 0
106 -110 -111 0
99 -110 -111 0
108 -110 -111 0
-106 110 111 0
-99 110 111 0
-108 110 111 0
-99 -106 -108 111 0
99 106 108 -111 0
-79 -84 112 0
-84 -110 112 0
-79 -110 112 0
79 84 -112 0
84 110 -112 0
79 110 -112 0
84 -112 -113 0
79 -112 -113 0
110 -112 -113 0
-84 112 113 0
-79 112 113 0
-110 112 113 0
-79 -84 -110 113 0
79 84 110 -113 0
-76 -85 114 0
-76 -112 114 0
-85 -112 114 0
76 85 -114 0
76 112 -114 0
85 112 -114 0
76 -114 -115 0
85 -114 -115 0
112 -114 -115 0
-76 114 115 0
-85 114 115 0
-112 114 115 0
-76 -85 -112 115 0
76 85 112 -115 0
89 -116 0
114 -116 0
-89 -114 116 0
-89 -114 -117 0
89 114 -117 0
-89 114 117 0
89 -114 117 0
-75 -118 0
75 118 0
75 -119 0
-75 119 0
118 -120 0
-83 -120 0
83 -118 120 0
83 -118 -121 0
-83 118 -121 0
83 118 121 0
-83 -118 121 0
120 -122 0
-68 -122 0
68 -120 122 0
68 -120 -123 0
-68 120 -123 0
68 120 123 0
-68 -120 123 0
122 -124 0
-66 -124 0
66 -122 124 0
66 -122 -125 0
-66 122 -125 0
66 122 125 0
-66 -122 125 0
-60 124 0
-60 -100 0
60 100 -124 0
-59 100 -124 0
-59 -100 124 0
59 100 124 0
59 -100 -124 0
-58 60 0
-58 -86 0
58 -60 86 0
-57 -60 86 0
-57 60 -86 0
57 60 86 0
57 -60 -86 0
-56 58 0
-56 -107 0
56 -58 107 0
-55 -58 107 0
-55 58 -107 0
55 58 107 0
55 -58 -107 0
-54 56 0
-54 -109 0
54 -56 109 0
-53 -56 109 0
-53 56 -109 0
53 56 109 0
53 -56 -109 0
-52 54 0
-52 -111 0
52 -54 111 0
-51 -54 111 0
-51 54 -111 0
51 54 111 0
51 -54 -111 0
-50 52 0
-50 -113 0
50 -52 113 0
-49 -52 113 0
-49 52 -113 0
49 52 113 0
49 -52 -113 0
-48 50 0
-48 -115 0
48 -50 115 0
-47 -50 115 0
-47 50 -115 0
47 50 115 0
47 -50 -115 0
-46 48 0
-46 -117 0
46 -48 117 0
-45 -48 117 0
-45 48 -117 0
45 48 117 0
45 -48 -117 0
-44 46 0
-44 -116 0
44 -46 116 0
-43 -46 116 0
-43 46 -116 0
43 46 116 0
43 -46 -116 0
-41 -42 0
-40 -41 0
40 41 42 0
-38 40 42 0
-38 -40 -42 0
38 40 -42 0
38 -40 42 0
-37 41 0
-36 -37 0
36 37 -41 0
-35 36 -41 0
-35 -36 41 0
35 36 41 0
35 -36 -41 0
-34 37 0
-33 -34 0
33 34 -37 0
-31 33 -37 0
-31 -33 37 0
31 33 37 0
31 -33 -37 0
-30 34 0
-29 -30 0
29 30 -34 0
-28 29 -34 0
-28 -29 34 0
28 29 34 0
28 -29 -34 0
-27 30 0
-26 -27 0
26 27 -30 0
-24 26 -30 0
-24 -26 30 0
24 26 30 0
24 -26 -30 0
-23 27 0
-22 -23 0
22 23 -27 0
-21 22 -27 0
-21 -22 27 0
21 22 27 0
21 -22 -27 0
-20 23 0
-19 -20 0
19 20 -23 0
-17 19 -23 0
-17 -19 23 0
17 19 23 0
17 -19 -23 0
-16 -42 0
-16 -40 0
16 40 42 0
-15 40 42 0
-15 -40 -42 0
15 40 -42 0
15 -40 42 0
-14 16 0
-14 -36 0
14 -16 36 0
-13 -16 36 0
-13 16 -36 0
13 16 36 0
13 -16 -36 0
-12 14 0
-12 -33 0
12 -14 33 0
-11 -14 33 0
-11 14 -33 0
11 14 33 0
11 -14 -33 0
-10 12 0
-10 -29 0
10 -12 29 0
-9 -12 29 0
-9 12 -29 0
9 12 29 0
9 -12 -29 0
-8 10 0
-8 -26 0
8 -10 26 0
-7 -10 26 0
-7 10 -26 0
7 10 26 0
7 -10 -26 0
8 -74 0
-22 -74 0
-8 22 74 0
-8 22 -82 0
8 -22 -82 0
8 22 82 0
-8 -22 82 0
74 -93 0
-19 -93 0
19 -74 93 0
19 -74 -98 0
-19 74 -98 0
19 74 98 0
-19 -74 98 0
75 -78 0
42 -78 0
-42 -75 78 0
-42 -75 0
42 75 0
-40 -83 88 0
-78 -83 88 0
-40 -78 88 0
40 83 -88 0
78 83 -88 0
40 78 -88 0
83 -88 0
40 -88 0
78 -88 0
40 78 83 0
-36 39 -68 0
39 -68 -88 0
-36 39 -88 0
36 -39 68 0
-39 68 88 0
36 -39 88 0
-39 68 0
36 -39 0
-39 88 0
36 68 88 0
32 -33 -66 0
32 -39 -66 0
32 -33 -39 0
-32 33 66 0
-32 39 66 0
-32 33 39 0
-32 66 0
-32 33 0
-32 39 0
33 39 66 0
25 -29 -100 0
25 -32 -100 0
25 -29 -32 0
-25 29 100 0
-25 32 100 0
-25 29 32 0
-25 100 0
-25 29 0
-25 32 0
29 32 100 0
18 -26 -86 0
18 -25 -86 0
18 -25 -26 0
-18 26 86 0
-18 25 86 0
-18 25 26 0
18 -86 0
18 -26 0
18 -25 0
-25 -26 -86 0
6 -22 -107 0
6 -18 -107 0
6 -18 -22 0
-6 22 107 0
-6 18 107 0
-6 18 22 0
-6 107 0
-6 22 0
-6 18 0
18 22 107 0
5 -19 -109 0
5 -6 -109 0
5 -6 -19 0
-5 19 109 0
-5 6 109 0
-5 6 19 0
5 -109 0
5 -19 0
5 -6 0
-6 -19 -109 0
-4 111 0
-4 5 0
4 -5 -111 0
5 -111 0
-5 111 0
-3 113 0
-3 4 0
3 -4 -113 0
4 -113 0
-4 113 0
-2 115 0
-2 3 0
2 -3 -115 0
3 -115 0
-3 115 0
-1 117 0
-1 2 0
1 -2 -117 0
2 -117 0
-2 117 0
-1 -116 0
1 -116 0
-1 116 0
